\ LP format - for model browsing. Use MPS format to capture full model detail.
Maximize
obj:   x[1] + x[2] + x[3] + x[4] + x[5] + x[7] + x[8] + x[11] + x[12] + x[16]
   + x[17] + x[22] + x[23] + x[29] + x[30] + x[37] + x[38] + x[46] + x[47]
   + x[56] + x[57] + x[67] + x[68] + x[79] + x[80] + x[92] + x[93] + x[106]
   + x[107] + x[121] + x[122] + x[137] + x[138] + x[154] + x[155] + x[172]
   + x[173] + x[191] + x[192] + x[211] + x[212] + x[232] + x[233] + x[254]
   + x[255] + x[277] + x[278] + x[301] + x[302] + x[326] + x[327] + x[352]
   + x[353] + x[379] + x[380] + x[407] + x[408] + x[436] + x[437] + x[466]
   + x[467] + x[6] + x[9] + x[13] + x[18] + x[24] + x[31] + x[39] + x[48]
   + x[58] + x[69] + x[81] + x[94] + x[108] + x[123] + x[139] + x[156]
   + x[174] + x[193] + x[213] + x[234] + x[256] + x[279] + x[303] + x[328]
   + x[354] + x[381] + x[409] + x[438] + x[468] + x[10] + x[14] + x[19]
   + x[25] + x[32] + x[40] + x[49] + x[59] + x[70] + x[82] + x[95] + x[109]
   + x[124] + x[140] + x[157] + x[175] + x[194] + x[214] + x[235] + x[257]
   + x[280] + x[304] + x[329] + x[355] + x[382] + x[410] + x[439] + x[469]
   + x[15] + x[20] + x[26] + x[33] + x[41] + x[50] + x[60] + x[71] + x[83]
   + x[96] + x[110] + x[125] + x[141] + x[158] + x[176] + x[195] + x[215]
   + x[236] + x[258] + x[281] + x[305] + x[330] + x[356] + x[383] + x[411]
   + x[440] + x[470] + x[21] + x[27] + x[34] + x[42] + x[51] + x[61]
   + x[72] + x[84] + x[97] + x[111] + x[126] + x[142] + x[159] + x[177]
   + x[196] + x[216] + x[237] + x[259] + x[282] + x[306] + x[331] + x[357]
   + x[384] + x[412] + x[441] + x[471] + x[28] + x[35] + x[43] + x[52]
   + x[62] + x[73] + x[85] + x[98] + x[112] + x[127] + x[143] + x[160]
   + x[178] + x[197] + x[217] + x[238] + x[260] + x[283] + x[307] + x[332]
   + x[358] + x[385] + x[413] + x[442] + x[472] + x[36] + x[44] + x[53]
   + x[63] + x[74] + x[86] + x[99] + x[113] + x[128] + x[144] + x[161]
   + x[179] + x[198] + x[218] + x[239] + x[261] + x[284] + x[308] + x[333]
   + x[359] + x[386] + x[414] + x[443] + x[473] + x[45] + x[54] + x[64]
   + x[75] + x[87] + x[100] + x[114] + x[129] + x[145] + x[162] + x[180]
   + x[199] + x[219] + x[240] + x[262] + x[285] + x[309] + x[334] + x[360]
   + x[387] + x[415] + x[444] + x[474] + x[55] + x[65] + x[76] + x[88]
   + x[101] + x[115] + x[130] + x[146] + x[163] + x[181] + x[200] + x[220]
   + x[241] + x[263] + x[286] + x[310] + x[335] + x[361] + x[388] + x[416]
   + x[445] + x[475] + x[66] + x[77] + x[89] + x[102] + x[116] + x[131]
   + x[147] + x[164] + x[182] + x[201] + x[221] + x[242] + x[264] + x[287]
   + x[311] + x[336] + x[362] + x[389] + x[417] + x[446] + x[476] + x[78]
   + x[90] + x[103] + x[117] + x[132] + x[148] + x[165] + x[183] + x[202]
   + x[222] + x[243] + x[265] + x[288] + x[312] + x[337] + x[363] + x[390]
   + x[418] + x[447] + x[477] + x[91] + x[104] + x[118] + x[133] + x[149]
   + x[166] + x[184] + x[203] + x[223] + x[244] + x[266] + x[289] + x[313]
   + x[338] + x[364] + x[391] + x[419] + x[448] + x[478] + x[105] + x[119]
   + x[134] + x[150] + x[167] + x[185] + x[204] + x[224] + x[245] + x[267]
   + x[290] + x[314] + x[339] + x[365] + x[392] + x[420] + x[449] + x[479]
   + x[120] + x[135] + x[151] + x[168] + x[186] + x[205] + x[225] + x[246]
   + x[268] + x[291] + x[315] + x[340] + x[366] + x[393] + x[421] + x[450]
   + x[480] + x[136] + x[152] + x[169] + x[187] + x[206] + x[226] + x[247]
   + x[269] + x[292] + x[316] + x[341] + x[367] + x[394] + x[422] + x[451]
   + x[481] + x[153] + x[170] + x[188] + x[207] + x[227] + x[248] + x[270]
   + x[293] + x[317] + x[342] + x[368] + x[395] + x[423] + x[452] + x[482]
   + x[171] + x[189] + x[208] + x[228] + x[249] + x[271] + x[294] + x[318]
   + x[343] + x[369] + x[396] + x[424] + x[453] + x[483] + x[190] + x[209]
   + x[229] + x[250] + x[272] + x[295] + x[319] + x[344] + x[370] + x[397]
   + x[425] + x[454] + x[484] + x[210] + x[230] + x[251] + x[273] + x[296]
   + x[320] + x[345] + x[371] + x[398] + x[426] + x[455] + x[485] + x[231]
   + x[252] + x[274] + x[297] + x[321] + x[346] + x[372] + x[399] + x[427]
   + x[456] + x[486] + x[253] + x[275] + x[298] + x[322] + x[347] + x[373]
   + x[400] + x[428] + x[457] + x[487] + x[276] + x[299] + x[323] + x[348]
   + x[374] + x[401] + x[429] + x[458] + x[488] + x[300] + x[324] + x[349]
   + x[375] + x[402] + x[430] + x[459] + x[489] + x[325] + x[350] + x[376]
   + x[403] + x[431] + x[460] + x[490] + x[351] + x[377] + x[404] + x[432]
   + x[461] + x[491] + x[378] + x[405] + x[433] + x[462] + x[492] + x[406]
   + x[434] + x[463] + x[493] + x[435] + x[464] + x[494] + x[465] + x[495]
   + x[496]
Subject To
 clq1: x[1] + x[2] + x[3] <= 1
 clq2: x[4] + x[5] + x[6] + x[10] + x[14] + x[19] + x[25] + x[32] + x[40]
   + x[49] + x[59] + x[70] + x[82] + x[95] + x[109] + x[124] + x[140]
   + x[157] + x[175] + x[194] + x[214] + x[235] + x[257] + x[280] + x[304]
   + x[329] + x[355] + x[382] + x[410] + x[439] + x[469] <= 1
 clq3: x[7] + x[8] + x[9] + x[10] + x[15] + x[20] + x[26] + x[33] + x[41]
   + x[50] + x[60] + x[71] + x[83] + x[96] + x[110] + x[125] + x[141]
   + x[158] + x[176] + x[195] + x[215] + x[236] + x[258] + x[281] + x[305]
   + x[330] + x[356] + x[383] + x[411] + x[440] + x[470] <= 1
 clq4: x[11] + x[12] + x[13] + x[14] + x[15] + x[21] + x[27] + x[34]
   + x[42] + x[51] + x[61] + x[72] + x[84] + x[97] + x[111] + x[126]
   + x[142] + x[159] + x[177] + x[196] + x[216] + x[237] + x[259] + x[282]
   + x[306] + x[331] + x[357] + x[384] + x[412] + x[441] + x[471] <= 1
 clq5: x[16] + x[17] + x[18] + x[19] + x[20] + x[21] + x[28] + x[35]
   + x[43] + x[52] + x[62] + x[73] + x[85] + x[98] + x[112] + x[127]
   + x[143] + x[160] + x[178] + x[197] + x[217] + x[238] + x[260] + x[283]
   + x[307] + x[332] + x[358] + x[385] + x[413] + x[442] + x[472] <= 1
 clq6: x[22] + x[23] + x[24] + x[25] + x[26] + x[27] + x[28] + x[36]
   + x[44] + x[53] + x[63] + x[74] + x[86] + x[99] + x[113] + x[128]
   + x[144] + x[161] + x[179] + x[198] + x[218] + x[239] + x[261] + x[284]
   + x[308] + x[333] + x[359] + x[386] + x[414] + x[443] + x[473] <= 1
 clq7: x[29] + x[30] + x[31] + x[32] + x[33] + x[34] + x[35] + x[36]
   + x[45] + x[54] + x[64] + x[75] + x[87] + x[100] + x[114] + x[129]
   + x[145] + x[162] + x[180] + x[199] + x[219] + x[240] + x[262] + x[285]
   + x[309] + x[334] + x[360] + x[387] + x[415] + x[444] + x[474] <= 1
 clq8: x[37] + x[38] + x[39] + x[40] + x[41] + x[42] + x[43] + x[44]
   + x[45] + x[55] + x[65] + x[76] + x[88] + x[101] + x[115] + x[130]
   + x[146] + x[163] + x[181] + x[200] + x[220] + x[241] + x[263] + x[286]
   + x[310] + x[335] + x[361] + x[388] + x[416] + x[445] + x[475] <= 1
 clq9: x[46] + x[47] + x[48] + x[49] + x[50] + x[51] + x[52] + x[53]
   + x[54] + x[55] + x[66] + x[77] + x[89] + x[102] + x[116] + x[131]
   + x[147] + x[164] + x[182] + x[201] + x[221] + x[242] + x[264] + x[287]
   + x[311] + x[336] + x[362] + x[389] + x[417] + x[446] + x[476] <= 1
 clq10: x[56] + x[57] + x[58] + x[59] + x[60] + x[61] + x[62] + x[63]
   + x[64] + x[65] + x[66] + x[78] + x[90] + x[103] + x[117] + x[132]
   + x[148] + x[165] + x[183] + x[202] + x[222] + x[243] + x[265] + x[288]
   + x[312] + x[337] + x[363] + x[390] + x[418] + x[447] + x[477] <= 1
 clq11: x[67] + x[68] + x[69] + x[70] + x[71] + x[72] + x[73] + x[74]
   + x[75] + x[76] + x[77] + x[78] + x[91] + x[104] + x[118] + x[133]
   + x[149] + x[166] + x[184] + x[203] + x[223] + x[244] + x[266] + x[289]
   + x[313] + x[338] + x[364] + x[391] + x[419] + x[448] + x[478] <= 1
 clq12: x[79] + x[80] + x[81] + x[82] + x[83] + x[84] + x[85] + x[86]
   + x[87] + x[88] + x[89] + x[90] + x[91] + x[105] + x[119] + x[134]
   + x[150] + x[167] + x[185] + x[204] + x[224] + x[245] + x[267] + x[290]
   + x[314] + x[339] + x[365] + x[392] + x[420] + x[449] + x[479] <= 1
 clq13: x[92] + x[93] + x[94] + x[95] + x[96] + x[97] + x[98] + x[99]
   + x[100] + x[101] + x[102] + x[103] + x[104] + x[105] + x[120] + x[135]
   + x[151] + x[168] + x[186] + x[205] + x[225] + x[246] + x[268] + x[291]
   + x[315] + x[340] + x[366] + x[393] + x[421] + x[450] + x[480] <= 1
 clq14: x[106] + x[107] + x[108] + x[109] + x[110] + x[111] + x[112]
   + x[113] + x[114] + x[115] + x[116] + x[117] + x[118] + x[119] + x[120]
   + x[136] + x[152] + x[169] + x[187] + x[206] + x[226] + x[247] + x[269]
   + x[292] + x[316] + x[341] + x[367] + x[394] + x[422] + x[451] + x[481]
   <= 1
 clq15: x[1] + x[4] + x[7] + x[11] + x[16] + x[22] + x[29] + x[37] + x[46]
   + x[56] + x[67] + x[79] + x[92] + x[106] + x[121] + x[137] + x[154]
   + x[172] + x[191] + x[211] + x[232] + x[254] + x[277] + x[301] + x[326]
   + x[352] + x[379] + x[407] + x[436] + x[466] <= 1
 clq16: x[3] + x[5] + x[8] + x[12] + x[17] + x[23] + x[30] + x[38] + x[47]
   + x[57] + x[68] + x[80] + x[93] + x[107] + x[122] + x[138] + x[155]
   + x[173] + x[192] + x[212] + x[233] + x[255] + x[278] + x[302] + x[327]
   + x[353] + x[380] + x[408] + x[437] + x[467] <= 1
 clq17: x[2] + x[6] + x[9] + x[13] + x[18] + x[24] + x[31] + x[39] + x[48]
   + x[58] + x[69] + x[81] + x[94] + x[108] + x[123] + x[139] + x[156]
   + x[174] + x[193] + x[213] + x[234] + x[256] + x[279] + x[303] + x[328]
   + x[354] + x[381] + x[409] + x[438] + x[468] <= 1
 clq18: x[121] + x[122] + x[123] + x[124] + x[125] + x[126] + x[127]
   + x[128] + x[129] + x[130] + x[131] + x[132] + x[133] + x[134] + x[135]
   + x[136] + x[153] + x[170] + x[188] + x[207] + x[227] + x[248] + x[270]
   + x[293] + x[317] + x[342] + x[368] + x[395] + x[423] + x[452] + x[482]
   <= 1
 clq19: x[137] + x[138] + x[139] + x[140] + x[141] + x[142] + x[143]
   + x[144] + x[145] + x[146] + x[147] + x[148] + x[149] + x[150] + x[151]
   + x[152] + x[153] + x[171] + x[189] + x[208] + x[228] + x[249] + x[271]
   + x[294] + x[318] + x[343] + x[369] + x[396] + x[424] + x[453] + x[483]
   <= 1
 clq20: x[190] + x[397] + x[398] <= 1
 clq21: x[191] + x[192] + x[193] + x[194] + x[195] + x[196] + x[197]
   + x[198] + x[199] + x[200] + x[201] + x[202] + x[203] + x[204] + x[205]
   + x[206] + x[207] + x[208] + x[209] + x[210] + x[231] + x[252] + x[274]
   + x[297] + x[321] + x[346] + x[372] + x[399] + x[427] + x[456] + x[486]
   <= 1
 clq22: x[229] + x[272] + x[275] <= 1
 clq23: x[232] + x[233] + x[234] + x[235] + x[236] + x[237] + x[238]
   + x[239] + x[240] + x[241] + x[242] + x[243] + x[244] + x[245] + x[246]
   + x[247] + x[248] + x[249] + x[250] + x[251] + x[252] + x[253] + x[276]
   + x[299] + x[323] + x[348] + x[374] + x[401] + x[429] + x[458] + x[488]
   <= 1
 clq24: x[277] + x[278] + x[279] + x[280] + x[281] + x[282] + x[283]
   + x[284] + x[285] + x[286] + x[287] + x[288] + x[289] + x[290] + x[291]
   + x[292] + x[293] + x[294] + x[295] + x[296] + x[297] + x[298] + x[299]
   + x[300] + x[325] + x[350] + x[376] + x[403] + x[431] + x[460] + x[490]
   <= 1
 clq25: x[301] + x[302] + x[303] + x[304] + x[305] + x[306] + x[307]
   + x[308] + x[309] + x[310] + x[311] + x[312] + x[313] + x[314] + x[315]
   + x[316] + x[317] + x[318] + x[319] + x[320] + x[321] + x[322] + x[323]
   + x[324] + x[325] + x[351] + x[377] + x[404] + x[432] + x[461] + x[491]
   <= 1
 clq26: x[326] + x[327] + x[328] + x[329] + x[330] + x[331] + x[332]
   + x[333] + x[334] + x[335] + x[336] + x[337] + x[338] + x[339] + x[340]
   + x[341] + x[342] + x[343] + x[344] + x[345] + x[346] + x[347] + x[348]
   + x[349] + x[350] + x[351] + x[378] + x[405] + x[433] + x[462] + x[492]
   <= 1
 clq27: x[352] + x[353] + x[354] + x[355] + x[356] + x[357] + x[358]
   + x[359] + x[360] + x[361] + x[362] + x[363] + x[364] + x[365] + x[366]
   + x[367] + x[368] + x[369] + x[370] + x[371] + x[372] + x[373] + x[374]
   + x[375] + x[376] + x[377] + x[378] + x[406] + x[434] + x[463] + x[493]
   <= 1
 clq28: x[407] + x[408] + x[409] + x[410] + x[411] + x[412] + x[413]
   + x[414] + x[415] + x[416] + x[417] + x[418] + x[419] + x[420] + x[421]
   + x[422] + x[423] + x[424] + x[425] + x[426] + x[427] + x[428] + x[429]
   + x[430] + x[431] + x[432] + x[433] + x[434] + x[435] + x[465] + x[495]
   <= 1
 clq29: x[436] + x[437] + x[438] + x[439] + x[440] + x[441] + x[442]
   + x[443] + x[444] + x[445] + x[446] + x[447] + x[448] + x[449] + x[450]
   + x[451] + x[452] + x[453] + x[454] + x[455] + x[456] + x[457] + x[458]
   + x[459] + x[460] + x[461] + x[462] + x[463] + x[464] + x[465] + x[496]
   <= 1
 clq30: x[466] + x[467] + x[468] + x[469] + x[470] + x[471] + x[472]
   + x[473] + x[474] + x[475] + x[476] + x[477] + x[478] + x[479] + x[480]
   + x[481] + x[482] + x[483] + x[484] + x[485] + x[486] + x[487] + x[488]
   + x[489] + x[490] + x[491] + x[492] + x[493] + x[494] + x[495] + x[496]
   <= 1
 clq31: x[230] + x[398] + x[400] <= 1
 clq32: x[254] + x[255] + x[256] + x[257] + x[258] + x[259] + x[260]
   + x[261] + x[262] + x[263] + x[264] + x[265] + x[266] + x[267] + x[268]
   + x[269] + x[270] + x[271] + x[272] + x[273] + x[274] + x[276] + x[300]
   + x[324] + x[349] + x[375] + x[402] + x[430] + x[459] + x[489] <= 1
 clq33: x[190] + x[229] + x[230] <= 1
 clq34: x[229] + x[397] + x[400] <= 1
 clq35: x[275] + x[400] + x[402] <= 1
 clq36: x[172] + x[173] + x[174] + x[175] + x[176] + x[177] + x[178]
   + x[179] + x[180] + x[181] + x[182] + x[183] + x[184] + x[185] + x[186]
   + x[187] + x[188] + x[189] + x[190] + x[210] + x[251] + x[273] + x[296]
   + x[320] + x[345] + x[371] + x[426] + x[455] + x[485] <= 1
 clq37: x[154] + x[155] + x[156] + x[157] + x[158] + x[159] + x[160]
   + x[161] + x[162] + x[163] + x[164] + x[165] + x[166] + x[167] + x[168]
   + x[169] + x[170] + x[171] + x[209] + x[250] + x[272] + x[295] + x[319]
   + x[344] + x[370] + x[397] + x[425] + x[454] + x[484] <= 1
 clq38: x[211] + x[212] + x[213] + x[214] + x[215] + x[216] + x[217]
   + x[218] + x[219] + x[220] + x[221] + x[222] + x[223] + x[224] + x[225]
   + x[226] + x[227] + x[228] + x[230] + x[231] + x[253] + x[275] + x[298]
   + x[322] + x[347] + x[373] + x[428] + x[457] + x[487] <= 1
 clq39: x[379] + x[380] + x[381] + x[382] + x[383] + x[384] + x[385]
   + x[386] + x[387] + x[388] + x[389] + x[390] + x[391] + x[392] + x[393]
   + x[394] + x[395] + x[396] + x[398] + x[399] + x[401] + x[402] + x[403]
   + x[404] + x[405] + x[406] + x[435] + x[464] + x[494] <= 1
 clq40: x[154] + x[229] <= 1
 clq41: x[211] + x[400] <= 1
 clq42: x[155] + x[229] <= 1
 clq43: x[212] + x[400] <= 1
 clq44: x[156] + x[229] <= 1
 clq45: x[213] + x[400] <= 1
 clq46: x[157] + x[229] <= 1
 clq47: x[379] + x[400] <= 1
 clq48: x[158] + x[229] <= 1
 clq49: x[380] + x[400] <= 1
 clq50: x[159] + x[229] <= 1
 clq51: x[381] + x[400] <= 1
 clq52: x[160] + x[229] <= 1
 clq53: x[385] + x[400] <= 1
 clq54: x[161] + x[229] <= 1
 clq55: x[386] + x[400] <= 1
 clq56: x[162] + x[229] <= 1
 clq57: x[387] + x[400] <= 1
 clq58: x[163] + x[229] <= 1
 clq59: x[388] + x[400] <= 1
 clq60: x[164] + x[229] <= 1
 clq61: x[389] + x[400] <= 1
 clq62: x[165] + x[229] <= 1
 clq63: x[390] + x[400] <= 1
 clq64: x[166] + x[229] <= 1
 clq65: x[391] + x[400] <= 1
 clq66: x[167] + x[229] <= 1
 clq67: x[392] + x[400] <= 1
 clq68: x[229] + x[295] <= 1
 clq69: x[393] + x[400] <= 1
 clq70: x[168] + x[229] <= 1
 clq71: x[394] + x[400] <= 1
 clq72: x[169] + x[229] <= 1
 clq73: x[395] + x[400] <= 1
 clq74: x[229] + x[425] <= 1
 clq75: x[396] + x[400] <= 1
 clq76: x[170] + x[229] <= 1
 clq77: x[399] + x[400] <= 1
 clq78: x[229] + x[298] <= 1
 clq79: x[400] + x[401] <= 1
 clq80: x[171] + x[229] <= 1
 clq81: x[400] + x[403] <= 1
 clq82: x[229] + x[428] <= 1
 clq83: x[400] + x[404] <= 1
 clq84: x[229] + x[319] <= 1
 clq85: x[400] + x[405] <= 1
 clq86: x[229] + x[344] <= 1
 clq87: x[400] + x[406] <= 1
 clq88: x[229] + x[322] <= 1
 clq89: x[400] + x[435] <= 1
 clq90: x[1] + x[173] <= 1
 clq91: x[2] + x[172] <= 1
 clq92: x[3] + x[174] <= 1
 clq93: x[229] + x[454] <= 1
 clq94: x[400] + x[457] <= 1
 clq95: x[1] + x[155] <= 1
 clq96: x[2] + x[154] <= 1
 clq97: x[3] + x[156] <= 1
 clq98: x[190] + x[209] <= 1
 clq99: x[229] + x[347] <= 1
 clq100: x[397] + x[464] <= 1
 clq101: x[230] + x[273] <= 1
 clq102: x[273] + x[398] <= 1
 clq103: x[254] + x[275] <= 1
 clq104: x[214] + x[400] <= 1
 clq105: x[1] + x[212] <= 1
 clq106: x[2] + x[211] <= 1
 clq107: x[3] + x[213] <= 1
 clq108: x[190] + x[484] <= 1
 clq109: x[215] + x[229] <= 1
 clq110: x[397] + x[494] <= 1
 clq111: x[230] + x[296] <= 1
 clq112: x[398] + x[426] <= 1
 clq113: x[255] + x[275] <= 1
 clq114: x[216] + x[400] <= 1
 clq115: x[1] + x[380] <= 1
 clq116: x[2] + x[379] <= 1
 clq117: x[3] + x[381] <= 1
 clq118: x[190] + x[370] <= 1
 clq119: x[217] + x[229] <= 1
 clq120: x[382] + x[397] <= 1
 clq121: x[172] + x[230] <= 1
 clq122: x[173] + x[398] <= 1
 clq123: x[256] + x[275] <= 1
 clq124: x[218] + x[400] <= 1
 clq125: x[1] + x[5] <= 1
 clq126: x[2] + x[4] <= 1
 clq127: x[3] + x[6] <= 1
 clq128: x[190] + x[250] <= 1
 clq129: x[219] + x[229] <= 1
 clq130: x[383] + x[397] <= 1
 clq131: x[174] + x[230] <= 1
 clq132: x[175] + x[398] <= 1
 clq133: x[257] + x[275] <= 1
 clq134: x[220] + x[400] <= 1
 clq135: x[1] + x[8] <= 1
 clq136: x[2] + x[7] <= 1
 clq137: x[3] + x[9] <= 1
 clq138: x[190] + x[272] <= 1
 clq139: x[221] + x[229] <= 1
 clq140: x[384] + x[397] <= 1
 clq141: x[176] + x[230] <= 1
 clq142: x[177] + x[398] <= 1
 clq143: x[258] + x[275] <= 1
 clq144: x[222] + x[400] <= 1
 clq145: x[1] + x[138] <= 1
 clq146: x[2] + x[137] <= 1
 clq147: x[3] + x[139] <= 1
 clq148: x[154] + x[190] <= 1
 clq149: x[223] + x[229] <= 1
 clq150: x[385] + x[397] <= 1
 clq151: x[178] + x[230] <= 1
 clq152: x[179] + x[398] <= 1
 clq153: x[259] + x[275] <= 1
 clq154: x[224] + x[400] <= 1
 clq155: x[1] + x[12] <= 1
 clq156: x[2] + x[11] <= 1
 clq157: x[3] + x[13] <= 1
 clq158: x[155] + x[190] <= 1
 clq159: x[225] + x[229] <= 1
 clq160: x[386] + x[397] <= 1
 clq161: x[180] + x[230] <= 1
 clq162: x[181] + x[398] <= 1
 clq163: x[260] + x[275] <= 1
 clq164: x[226] + x[400] <= 1
 clq165: x[1] + x[17] <= 1
 clq166: x[2] + x[16] <= 1
 clq167: x[3] + x[18] <= 1
 clq168: x[156] + x[190] <= 1
 clq169: x[227] + x[229] <= 1
 clq170: x[387] + x[397] <= 1
 clq171: x[182] + x[230] <= 1
 clq172: x[183] + x[398] <= 1
 clq173: x[261] + x[275] <= 1
 clq174: x[228] + x[400] <= 1
 clq175: x[1] + x[278] <= 1
 clq176: x[2] + x[277] <= 1
 clq177: x[3] + x[279] <= 1
 clq178: x[157] + x[190] <= 1
 clq179: x[229] + x[231] <= 1
 clq180: x[388] + x[397] <= 1
 clq181: x[184] + x[230] <= 1
 clq182: x[185] + x[398] <= 1
 clq183: x[262] + x[275] <= 1
 clq184: x[400] + x[487] <= 1
 clq185: x[1] + x[23] <= 1
 clq186: x[2] + x[22] <= 1
 clq187: x[3] + x[24] <= 1
 clq188: x[158] + x[190] <= 1
 clq189: x[229] + x[373] <= 1
 clq190: x[389] + x[397] <= 1
 clq191: x[186] + x[230] <= 1
 clq192: x[187] + x[398] <= 1
 clq193: x[263] + x[275] <= 1
 clq194: x[253] + x[400] <= 1
 clq195: x[1] + x[353] <= 1
 clq196: x[2] + x[67] <= 1
 clq197: x[3] + x[193] <= 1
 clq198: x[161] + x[190] <= 1
 clq199: x[226] + x[229] <= 1
 clq200: x[390] + x[397] <= 1
 clq201: x[230] + x[345] <= 1
 clq202: x[398] + x[485] <= 1
 clq203: x[275] + x[459] <= 1
 clq204: x[225] + x[400] <= 1
 clq205: x[1] + x[68] <= 1
 clq206: x[2] + x[37] <= 1
 clq207: x[3] + x[354] <= 1
 clq208: x[190] + x[319] <= 1
 clq209: x[228] + x[229] <= 1
 clq210: x[391] + x[397] <= 1
 clq211: x[230] + x[455] <= 1
 clq212: x[210] + x[398] <= 1
 clq213: x[275] + x[324] <= 1
 clq214: x[322] + x[400] <= 1
 clq215: x[1] + x[38] <= 1
 clq216: x[2] + x[326] <= 1
 clq217: x[3] + x[69] <= 1
 clq218: x[162] + x[190] <= 1
 clq219: x[229] + x[484] <= 1
 clq220: x[392] + x[397] <= 1
 clq221: x[230] + x[251] <= 1
 clq222: x[371] + x[398] <= 1
 clq223: x[264] + x[275] <= 1
 clq224: x[227] + x[400] <= 1
 clq225: x[1] + x[327] <= 1
 clq226: x[2] + x[232] <= 1
 clq227: x[3] + x[39] <= 1
 clq228: x[163] + x[190] <= 1
 clq229: x[229] + x[250] <= 1
 clq230: x[393] + x[397] <= 1
 clq231: x[188] + x[230] <= 1
 clq232: x[189] + x[398] <= 1
 clq233: x[265] + x[275] <= 1
 clq234: x[231] + x[400] <= 1
 clq235: x[1] + x[233] <= 1
 clq236: x[2] + x[106] <= 1
 clq237: x[3] + x[328] <= 1
 clq238: x[164] + x[190] <= 1
 clq239: x[229] + x[487] <= 1
 clq240: x[394] + x[397] <= 1
 clq241: x[230] + x[320] <= 1
 clq242: x[398] + x[455] <= 1
 clq243: x[275] + x[489] <= 1
 clq244: x[298] + x[400] <= 1
 clq245: x[1] + x[107] <= 1
 clq246: x[2] + x[301] <= 1
 clq247: x[3] + x[234] <= 1
 clq248: x[165] + x[190] <= 1
 clq249: x[229] + x[457] <= 1
 clq250: x[395] + x[397] <= 1
 clq251: x[230] + x[485] <= 1
 clq252: x[296] + x[398] <= 1
 clq253: x[266] + x[275] <= 1
 clq254: x[400] + x[428] <= 1
 clq255: x[1] + x[302] <= 1
 clq256: x[2] + x[46] <= 1
 clq257: x[3] + x[108] <= 1
 clq258: x[166] + x[190] <= 1
 clq259: x[209] + x[229] <= 1
 clq260: x[396] + x[397] <= 1
 clq261: x[230] + x[426] <= 1
 clq262: x[172] + x[398] <= 1
 clq263: x[267] + x[275] <= 1
 clq264: x[347] + x[400] <= 1
 clq265: x[1] + x[47] <= 1
 clq266: x[2] + x[79] <= 1
 clq267: x[3] + x[303] <= 1
 clq268: x[190] + x[454] <= 1
 clq269: x[229] + x[370] <= 1
 clq270: x[397] + x[399] <= 1
 clq271: x[173] + x[230] <= 1
 clq272: x[174] + x[398] <= 1
 clq273: x[268] + x[275] <= 1
 clq274: x[400] + x[494] <= 1
 clq275: x[1] + x[80] <= 1
 clq276: x[2] + x[466] <= 1
 clq277: x[3] + x[48] <= 1
 clq278: x[167] + x[190] <= 1
 clq279: x[211] + x[229] <= 1
 clq280: x[397] + x[401] <= 1
 clq281: x[175] + x[230] <= 1
 clq282: x[176] + x[398] <= 1
 clq283: x[275] + x[300] <= 1
 clq284: x[400] + x[464] <= 1
 clq285: x[1] + x[467] <= 1
 clq286: x[2] + x[436] <= 1
 clq287: x[3] + x[81] <= 1
 clq288: x[190] + x[295] <= 1
 clq289: x[212] + x[229] <= 1
 clq290: x[397] + x[402] <= 1
 clq291: x[177] + x[230] <= 1
 clq292: x[178] + x[398] <= 1
 clq293: x[269] + x[275] <= 1
 clq294: x[223] + x[400] <= 1
 clq295: x[1] + x[437] <= 1
 clq296: x[2] + x[407] <= 1
 clq297: x[3] + x[468] <= 1
 clq298: x[168] + x[190] <= 1
 clq299: x[213] + x[229] <= 1
 clq300: x[397] + x[403] <= 1
 clq301: x[210] + x[230] <= 1
 clq302: x[180] + x[398] <= 1
 clq303: x[270] + x[275] <= 1
 clq304: x[373] + x[400] <= 1
 clq305: x[1] + x[408] <= 1
 clq306: x[2] + x[56] <= 1
 clq307: x[3] + x[438] <= 1
 clq308: x[169] + x[190] <= 1
 clq309: x[214] + x[229] <= 1
 clq310: x[397] + x[435] <= 1
 clq311: x[179] + x[230] <= 1
 clq312: x[182] + x[398] <= 1
 clq313: x[275] + x[430] <= 1
 clq314: x[215] + x[400] <= 1
 clq315: x[1] + x[57] <= 1
 clq316: x[2] + x[121] <= 1
 clq317: x[3] + x[409] <= 1
 clq318: x[190] + x[425] <= 1
 clq319: x[216] + x[229] <= 1
 clq320: x[397] + x[404] <= 1
 clq321: x[230] + x[371] <= 1
 clq322: x[184] + x[398] <= 1
 clq323: x[271] + x[275] <= 1
 clq324: x[217] + x[400] <= 1
 clq325: x[1] + x[122] <= 1
 clq326: x[2] + x[92] <= 1
 clq327: x[3] + x[58] <= 1
 clq328: x[170] + x[190] <= 1
 clq329: x[218] + x[229] <= 1
 clq330: x[397] + x[405] <= 1
 clq331: x[181] + x[230] <= 1
 clq332: x[345] + x[398] <= 1
 clq333: x[273] + x[275] <= 1
 clq334: x[219] + x[400] <= 1
 clq335: x[1] + x[93] <= 1
 clq336: x[2] + x[29] <= 1
 clq337: x[3] + x[123] <= 1
 clq338: x[171] + x[190] <= 1
 clq339: x[220] + x[229] <= 1
 clq340: x[379] + x[397] <= 1
 clq341: x[185] + x[230] <= 1
 clq342: x[186] + x[398] <= 1
 clq343: x[274] + x[275] <= 1
 clq344: x[221] + x[400] <= 1
 clq345: x[1] + x[30] <= 1
 clq346: x[2] + x[254] <= 1
 clq347: x[3] + x[94] <= 1
 clq348: x[190] + x[344] <= 1
 clq349: x[229] + x[253] <= 1
 clq350: x[380] + x[397] <= 1
 clq351: x[187] + x[230] <= 1
 clq352: x[251] + x[398] <= 1
 clq353: x[275] + x[276] <= 1
 clq354: x[382] + x[400] <= 1
 clq355: x[1] + x[255] <= 1
 clq356: x[2] + x[191] <= 1
 clq357: x[3] + x[31] <= 1
 clq358: x[159] + x[190] <= 1
 clq359: x[222] + x[229] <= 1
 clq360: x[381] + x[397] <= 1
 clq361: x[189] + x[230] <= 1
 clq362: x[188] + x[398] <= 1
 clq363: x[275] + x[349] <= 1
 clq364: x[383] + x[400] <= 1
 clq365: x[1] + x[192] <= 1
 clq366: x[2] + x[352] <= 1
 clq367: x[3] + x[256] <= 1
 clq368: x[384] + x[400] <= 1
 clq369: x[160] + x[190] <= 1
 clq370: x[183] + x[230] <= 1
 clq371: x[224] + x[229] <= 1
 clq372: x[397] + x[406] <= 1
 clq373: x[320] + x[398] <= 1
 clq374: x[275] + x[375] <= 1
Bounds
Binaries
 x[1] x[2] x[3] x[4] x[5] x[7] x[8] x[11] x[12] x[16] x[17] x[22] x[23]
 x[29] x[30] x[37] x[38] x[46] x[47] x[56] x[57] x[67] x[68] x[79] x[80]
 x[92] x[93] x[106] x[107] x[121] x[122] x[137] x[138] x[154] x[155] x[172]
 x[173] x[191] x[192] x[211] x[212] x[232] x[233] x[254] x[255] x[277]
 x[278] x[301] x[302] x[326] x[327] x[352] x[353] x[379] x[380] x[407]
 x[408] x[436] x[437] x[466] x[467] x[6] x[9] x[13] x[18] x[24] x[31] x[39]
 x[48] x[58] x[69] x[81] x[94] x[108] x[123] x[139] x[156] x[174] x[193]
 x[213] x[234] x[256] x[279] x[303] x[328] x[354] x[381] x[409] x[438]
 x[468] x[10] x[14] x[19] x[25] x[32] x[40] x[49] x[59] x[70] x[82] x[95]
 x[109] x[124] x[140] x[157] x[175] x[194] x[214] x[235] x[257] x[280]
 x[304] x[329] x[355] x[382] x[410] x[439] x[469] x[15] x[20] x[26] x[33]
 x[41] x[50] x[60] x[71] x[83] x[96] x[110] x[125] x[141] x[158] x[176]
 x[195] x[215] x[236] x[258] x[281] x[305] x[330] x[356] x[383] x[411]
 x[440] x[470] x[21] x[27] x[34] x[42] x[51] x[61] x[72] x[84] x[97] x[111]
 x[126] x[142] x[159] x[177] x[196] x[216] x[237] x[259] x[282] x[306]
 x[331] x[357] x[384] x[412] x[441] x[471] x[28] x[35] x[43] x[52] x[62]
 x[73] x[85] x[98] x[112] x[127] x[143] x[160] x[178] x[197] x[217] x[238]
 x[260] x[283] x[307] x[332] x[358] x[385] x[413] x[442] x[472] x[36] x[44]
 x[53] x[63] x[74] x[86] x[99] x[113] x[128] x[144] x[161] x[179] x[198]
 x[218] x[239] x[261] x[284] x[308] x[333] x[359] x[386] x[414] x[443]
 x[473] x[45] x[54] x[64] x[75] x[87] x[100] x[114] x[129] x[145] x[162]
 x[180] x[199] x[219] x[240] x[262] x[285] x[309] x[334] x[360] x[387]
 x[415] x[444] x[474] x[55] x[65] x[76] x[88] x[101] x[115] x[130] x[146]
 x[163] x[181] x[200] x[220] x[241] x[263] x[286] x[310] x[335] x[361]
 x[388] x[416] x[445] x[475] x[66] x[77] x[89] x[102] x[116] x[131] x[147]
 x[164] x[182] x[201] x[221] x[242] x[264] x[287] x[311] x[336] x[362]
 x[389] x[417] x[446] x[476] x[78] x[90] x[103] x[117] x[132] x[148] x[165]
 x[183] x[202] x[222] x[243] x[265] x[288] x[312] x[337] x[363] x[390]
 x[418] x[447] x[477] x[91] x[104] x[118] x[133] x[149] x[166] x[184]
 x[203] x[223] x[244] x[266] x[289] x[313] x[338] x[364] x[391] x[419]
 x[448] x[478] x[105] x[119] x[134] x[150] x[167] x[185] x[204] x[224]
 x[245] x[267] x[290] x[314] x[339] x[365] x[392] x[420] x[449] x[479]
 x[120] x[135] x[151] x[168] x[186] x[205] x[225] x[246] x[268] x[291]
 x[315] x[340] x[366] x[393] x[421] x[450] x[480] x[136] x[152] x[169]
 x[187] x[206] x[226] x[247] x[269] x[292] x[316] x[341] x[367] x[394]
 x[422] x[451] x[481] x[153] x[170] x[188] x[207] x[227] x[248] x[270]
 x[293] x[317] x[342] x[368] x[395] x[423] x[452] x[482] x[171] x[189]
 x[208] x[228] x[249] x[271] x[294] x[318] x[343] x[369] x[396] x[424]
 x[453] x[483] x[190] x[209] x[229] x[250] x[272] x[295] x[319] x[344]
 x[370] x[397] x[425] x[454] x[484] x[210] x[230] x[251] x[273] x[296]
 x[320] x[345] x[371] x[398] x[426] x[455] x[485] x[231] x[252] x[274]
 x[297] x[321] x[346] x[372] x[399] x[427] x[456] x[486] x[253] x[275]
 x[298] x[322] x[347] x[373] x[400] x[428] x[457] x[487] x[276] x[299]
 x[323] x[348] x[374] x[401] x[429] x[458] x[488] x[300] x[324] x[349]
 x[375] x[402] x[430] x[459] x[489] x[325] x[350] x[376] x[403] x[431]
 x[460] x[490] x[351] x[377] x[404] x[432] x[461] x[491] x[378] x[405]
 x[433] x[462] x[492] x[406] x[434] x[463] x[493] x[435] x[464] x[494]
 x[465] x[495] x[496]
End
